(set-info :smt-lib-version 2.6)
(set-logic QF_NIA)
(set-info :source |AProve team, see http://aprove.informatik.rwth-aachen.de/, submitted for SMT-COMP 2014|)
(set-info :category "industrial")
(set-info :status sat)
(declare-fun a__4 () Int)
(declare-fun a__2 () Int)
(declare-fun a__6 () Int)
(declare-fun a__10 () Int)
(declare-fun a__12 () Int)
(declare-fun a__15 () Int)
(declare-fun a__17 () Int)
(declare-fun a__19 () Int)
(declare-fun a__22 () Int)
(declare-fun a__3 () Int)
(declare-fun a__5 () Int)
(declare-fun a__9 () Int)
(declare-fun a__11 () Int)
(declare-fun a__14 () Int)
(declare-fun a__16 () Int)
(declare-fun a__18 () Int)
(declare-fun a__21 () Int)
(assert (and (>= (+ (* a__4 a__2) (* (- 0 1) a__2)) 0) (>= (+ (* a__6 a__2) (* (- 0 1) a__2)) 0) (>= (+ (* a__10 a__2) (* (- 0 1) a__2)) 0) (>= (+ (* a__12 a__2) (* (- 0 1) a__2)) 0) (>= (+ (* a__15 a__2) (* (- 0 1) a__2)) 0) (>= (+ (* a__17 a__2) (* (- 0 1) a__2)) 0) (>= (+ (* a__19 a__2) (* (- 0 1) a__2)) 0) (>= (+ (* a__22 a__2) (* (- 0 1) a__2)) 0) (>= (* a__3 a__2) 0) (>= (* a__5 a__2) 0) (>= (* a__9 a__2) 0) (>= (* a__11 a__2) 0) (>= (* a__14 a__2) 0) (>= (* a__16 a__2) 0) (>= (* a__18 a__2) 0) (>= (* a__21 a__2) 0) (not (and (= (* a__3 a__2) 0) (= (* a__5 a__2) 0) (= (* a__9 a__2) 0) (= (* a__11 a__2) 0) (= (* a__14 a__2) 0) (= (* a__16 a__2) 0) (= (* a__18 a__2) 0) (= (* a__21 a__2) 0))) (>= a__4 0) (>= a__2 0) (>= a__6 0) (>= a__10 0) (>= a__12 0) (>= a__15 0) (>= a__17 0) (>= a__19 0) (>= a__22 0) (>= a__3 0) (>= a__5 0) (>= a__9 0) (>= a__11 0) (>= a__14 0) (>= a__16 0) (>= a__18 0) (>= a__21 0)))
(assert (<= a__10 100))
(assert (<= a__11 100))
(assert (<= a__12 100))
(assert (<= a__14 100))
(assert (<= a__15 100))
(assert (<= a__16 100))
(assert (<= a__17 100))
(assert (<= a__18 100))
(assert (<= a__19 100))
(assert (<= a__2 100))
(assert (<= a__21 100))
(assert (<= a__22 100))
(assert (<= a__3 100))
(assert (<= a__4 100))
(assert (<= a__5 100))
(assert (<= a__6 100))
(assert (<= a__9 100))
(check-sat)
;;(get-assignment)
;;(get-model)
(exit)
